(declare-fun temp54023_1 () (_ BitVec 64))
(declare-fun temp54023_2 () (_ BitVec 64))
(declare-fun var77740 () (_ BitVec 64))
(declare-fun k!0 () Bool)
(declare-fun ARGNAME_input_1_NAMEEND_DIM () (_ BitVec 64))
(declare-fun ARGNAME_data_format_NAMEEND_STRFMT () (_ BitVec 64))
(declare-fun temp54023_3 () (_ BitVec 64))
(declare-fun ARGNAME_input_2_NAMEEND_DIM () (_ BitVec 64))
(declare-fun var77770 () (_ BitVec 64))
(declare-fun temp54023_4 () (_ BitVec 64))
(declare-fun temp54023_5 () (_ BitVec 64))
(declare-fun ARGNAME_input_1_NAMEEND_DIMSIZE
             ()
             (Array (_ BitVec 64) (_ BitVec 64)))
(declare-fun temp54023_6 () (_ BitVec 64))
(declare-fun temp54023_7 () (_ BitVec 64))
(declare-fun temp54023_8 () (_ BitVec 64))
(declare-fun temp54023_9 () (_ BitVec 64))
(declare-fun temp54023_10 () (_ BitVec 64))
(declare-fun temp54023_11 () (_ BitVec 64))
(declare-fun temp54023_12 () (_ BitVec 64))
(declare-fun temp54023_13 () (_ BitVec 64))
(declare-fun temp54023_14 () (_ BitVec 64))
(declare-fun temp54023_15 () (_ BitVec 64))
(declare-fun temp54023_16 () (_ BitVec 64))
(declare-fun temp54023_17 () (_ BitVec 64))
(declare-fun temp54023_18 () (_ BitVec 64))
(declare-fun var77799 () (_ BitVec 64))
(declare-fun temp54023_19 () (_ BitVec 64))
(declare-fun ARGNAME_input_2_NAMEEND_DIMSIZE
             ()
             (Array (_ BitVec 64) (_ BitVec 64)))
(declare-fun temp54023_20 () (_ BitVec 64))
(declare-fun temp54023_21 () (_ BitVec 64))
(declare-fun temp54023_22 () (_ BitVec 64))
(declare-fun temp54023_23 () (_ BitVec 64))
(declare-fun temp54023_24 () (_ BitVec 64))
(declare-fun temp54023_25 () (_ BitVec 64))
(declare-fun temp54023_26 () (_ BitVec 64))
(declare-fun temp54023_27 () (_ BitVec 64))
(declare-fun temp54023_28 () (_ BitVec 64))
(declare-fun temp54023_29 () (_ BitVec 64))
(declare-fun temp54023_30 () (_ BitVec 64))
(declare-fun temp54023_31 () (_ BitVec 64))
(declare-fun temp54023_32 () (_ BitVec 64))
(declare-fun var77832 () (_ BitVec 64))
(declare-fun temp54023_33 () (_ BitVec 64))
(declare-fun temp54023_34 () (_ BitVec 64))
(declare-fun var77833 () (_ BitVec 64))
(declare-fun var77834 () (_ BitVec 64))
(declare-fun temp54023_35 () (_ BitVec 64))
(declare-fun temp54023_36 () (_ BitVec 64))
(declare-fun var275510 () (_ BitVec 64))
(declare-fun temp54023_37 () (_ BitVec 64))
(declare-fun var275528 () (_ BitVec 64))
(declare-fun temp54023_38 () (_ BitVec 64))
(declare-fun temp54023_39 () (_ BitVec 64))
(declare-fun var406582 () (_ BitVec 64))
(declare-fun temp54023_40 () (_ BitVec 64))
(declare-fun var406600 () (_ BitVec 64))
(declare-fun temp54023_41 () (_ BitVec 64))
(declare-fun temp54023_42 () (_ BitVec 64))
(declare-fun var537654 () (_ BitVec 64))
(declare-fun temp54023_43 () (_ BitVec 64))
(declare-fun var537672 () (_ BitVec 64))
(declare-fun temp54023_44 () (_ BitVec 64))
(declare-fun temp54023_46 () (_ BitVec 64))
(declare-fun temp54023_45 () (_ BitVec 64))
(declare-fun temp54023_48 () (_ BitVec 64))
(declare-fun temp54023_47 () (_ BitVec 64))
(declare-fun temp54023_50 () (_ BitVec 64))
(declare-fun temp54023_49 () (_ BitVec 64))
(declare-fun temp54023_52 () (_ BitVec 64))
(declare-fun temp54023_51 () (_ BitVec 64))
(declare-fun temp54023_54 () (_ BitVec 64))
(declare-fun temp54023_53 () (_ BitVec 64))
(declare-fun temp54023_56 () (_ BitVec 64))
(declare-fun temp54023_55 () (_ BitVec 64))
(declare-fun temp54023_58 () (_ BitVec 64))
(declare-fun temp54023_57 () (_ BitVec 64))
(declare-fun temp54023_60 () (_ BitVec 64))
(declare-fun temp54023_59 () (_ BitVec 64))
(declare-fun temp54023_61 () (_ BitVec 64))
(declare-fun var861234 () (_ BitVec 64))
(declare-fun temp54023_62 () (_ BitVec 64))
(declare-fun var861235 () (_ BitVec 64))
(declare-fun var861236 () (_ BitVec 64))
(declare-fun var861232 () (_ BitVec 64))
(declare-fun var599004 () (_ BitVec 64))
(declare-fun temp54023_63 () (_ BitVec 64))
(declare-fun var926770 () (_ BitVec 64))
(declare-fun temp54023_64 () (_ BitVec 64))
(declare-fun var926771 () (_ BitVec 64))
(declare-fun var926772 () (_ BitVec 64))
(declare-fun var926768 () (_ BitVec 64))
(declare-fun var599011 () (_ BitVec 64))
(declare-fun temp54023_65 () (_ BitVec 64))
(declare-fun var992306 () (_ BitVec 64))
(declare-fun temp54023_66 () (_ BitVec 64))
(declare-fun var992307 () (_ BitVec 64))
(declare-fun var992308 () (_ BitVec 64))
(declare-fun var992304 () (_ BitVec 64))
(declare-fun var599016 () (_ BitVec 64))
(declare-fun var78095 () (_ BitVec 64))
(declare-fun temp54023_67 () (_ BitVec 64))
(declare-fun temp54023_68 () (_ BitVec 64))
(declare-fun var78184 () (_ BitVec 64))
(declare-fun temp54023_70 () (_ BitVec 64))
(declare-fun temp54023_69 () (_ BitVec 64))
(declare-fun temp54023_72 () (_ BitVec 64))
(declare-fun temp54023_71 () (_ BitVec 64))
(assert (or (= ARGNAME_data_format_NAMEEND_STRFMT #x0000000000000000)
    (= ARGNAME_data_format_NAMEEND_STRFMT #x0000000000000001)
    (= ARGNAME_data_format_NAMEEND_STRFMT #x0000000000000002)
    (= ARGNAME_data_format_NAMEEND_STRFMT #x0000000000000003)
    (= ARGNAME_data_format_NAMEEND_STRFMT #x0000000000000004)
    (= ARGNAME_data_format_NAMEEND_STRFMT #x0000000000000005)))
(assert (= temp54023_1 #x0000000000000005))
(assert (= var77740
   (ite (= ARGNAME_input_1_NAMEEND_DIM temp54023_1)
        #x0000000000000001
        #x0000000000000000)))
(assert (= temp54023_2 #x0000000000000001))
(assert (= var77740 temp54023_2))
(assert (= temp54023_3 #x0000000000000005))
(assert (= var77770
   (ite (= ARGNAME_input_2_NAMEEND_DIM temp54023_3)
        #x0000000000000001
        #x0000000000000000)))
(assert (= temp54023_4 #x0000000000000001))
(assert (= var77770 temp54023_4))
(assert (= temp54023_5 #x0000000000000000))
(assert (= temp54023_6 (select ARGNAME_input_1_NAMEEND_DIMSIZE temp54023_5)))
(assert (= temp54023_7 #x0000000000000001))
(assert (= temp54023_8 (select ARGNAME_input_1_NAMEEND_DIMSIZE temp54023_7)))
(assert (= temp54023_9 #x0000000000000002))
(assert (= temp54023_10 (select ARGNAME_input_1_NAMEEND_DIMSIZE temp54023_9)))
(assert (= temp54023_11 #x0000000000000003))
(assert (= temp54023_12 (select ARGNAME_input_1_NAMEEND_DIMSIZE temp54023_11)))
(assert (= temp54023_13 #x0000000000000004))
(assert (= temp54023_14 (select ARGNAME_input_1_NAMEEND_DIMSIZE temp54023_13)))
(assert (= temp54023_15 #x0000000000000005))
(assert (= temp54023_16 (select ARGNAME_input_1_NAMEEND_DIMSIZE temp54023_15)))
(assert (= temp54023_17 #x0000000000000003))
(assert (= temp54023_18 (select ARGNAME_input_1_NAMEEND_DIMSIZE temp54023_17)))
(assert (= var77799 temp54023_18))
(assert (= temp54023_19 #x0000000000000000))
(assert (= temp54023_20 (select ARGNAME_input_2_NAMEEND_DIMSIZE temp54023_19)))
(assert (= temp54023_21 #x0000000000000001))
(assert (= temp54023_22 (select ARGNAME_input_2_NAMEEND_DIMSIZE temp54023_21)))
(assert (= temp54023_23 #x0000000000000002))
(assert (= temp54023_24 (select ARGNAME_input_2_NAMEEND_DIMSIZE temp54023_23)))
(assert (= temp54023_25 #x0000000000000003))
(assert (= temp54023_26 (select ARGNAME_input_2_NAMEEND_DIMSIZE temp54023_25)))
(assert (= temp54023_27 #x0000000000000004))
(assert (= temp54023_28 (select ARGNAME_input_2_NAMEEND_DIMSIZE temp54023_27)))
(assert (= temp54023_29 #x0000000000000005))
(assert (= temp54023_30 (select ARGNAME_input_2_NAMEEND_DIMSIZE temp54023_29)))
(assert (= temp54023_31 #x0000000000000004))
(assert (= temp54023_32 (select ARGNAME_input_2_NAMEEND_DIMSIZE temp54023_31)))
(assert (= var77832 temp54023_32))
(assert (= temp54023_33 #x0000000000000004))
(assert (= temp54023_34 (select ARGNAME_input_1_NAMEEND_DIMSIZE temp54023_33)))
(assert (= var77833 temp54023_34))
(assert (= var77834 (ite (= var77832 var77833) #x0000000000000001 #x0000000000000000)))
(assert (= temp54023_35 #x0000000000000001))
(assert (= var77834 temp54023_35))
(assert (= temp54023_36 #x0000000000000001))
(assert (= var275510 temp54023_36))
(assert (= temp54023_37 #x0000000000000001))
(assert (= var275528
   (ite (bvslt var275510 temp54023_37) #x0000000000000001 #x0000000000000000)))
(assert (= temp54023_38 #x0000000000000000))
(assert (= var275528 temp54023_38))
(assert (= temp54023_39 #x0000000000000001))
(assert (= var406582 temp54023_39))
(assert (= temp54023_40 #x0000000000000001))
(assert (= var406600
   (ite (bvslt var406582 temp54023_40) #x0000000000000001 #x0000000000000000)))
(assert (= temp54023_41 #x0000000000000000))
(assert (= var406600 temp54023_41))
(assert (= temp54023_42 #x0000000000000001))
(assert (= var537654 temp54023_42))
(assert (= temp54023_43 #x0000000000000001))
(assert (= var537672
   (ite (bvslt var537654 temp54023_43) #x0000000000000001 #x0000000000000000)))
(assert (= temp54023_44 #x0000000000000000))
(assert (= var537672 temp54023_44))
(assert (= temp54023_46 #x0000000000000000))
(assert (= temp54023_45 temp54023_46))
(assert (= temp54023_48 #x0000000000000000))
(assert (= temp54023_47 temp54023_48))
(assert (= temp54023_50 #x00000000000000ff))
(assert (= temp54023_49 temp54023_50))
(assert (= temp54023_52 #x00000000000000ff))
(assert (= temp54023_51 temp54023_52))
(assert (= temp54023_54 #x00000000000000ff))
(assert (= temp54023_53 temp54023_54))
(assert (= temp54023_56 #x0000000000000000))
(assert (= temp54023_55 temp54023_56))
(assert (= temp54023_58 #x0000000000000000))
(assert (= temp54023_57 temp54023_58))
(assert (= temp54023_60 #x0000000000000000))
(assert (= temp54023_59 temp54023_60))
(assert (= temp54023_61 #x0000000000008000))
(assert (= var861234 temp54023_61))
(assert (= temp54023_62 #x0000000000000001))
(assert (= var861235
   (ite (bvslt temp54023_59 temp54023_62) #x0000000000000001 #x0000000000000000)))
(assert (= var861236 (ite (= var861235 #x0000000000000001) var861234 temp54023_59)))
(assert (= var861232 var861236))
(assert (= var599004 var861232))
(assert (= temp54023_63 #x0000000000040000))
(assert (= var926770 temp54023_63))
(assert (= temp54023_64 #x0000000000000001))
(assert (= var926771
   (ite (bvslt temp54023_57 temp54023_64) #x0000000000000001 #x0000000000000000)))
(assert (= var926772 (ite (= var926771 #x0000000000000001) var926770 temp54023_57)))
(assert (= var926768 var926772))
(assert (= var599011 var926768))
(assert (= temp54023_65 #x0000000000200000))
(assert (= var992306 temp54023_65))
(assert (= temp54023_66 #x0000000000000001))
(assert (= var992307
   (ite (bvslt temp54023_55 temp54023_66) #x0000000000000001 #x0000000000000000)))
(assert (= var992308 (ite (= var992307 #x0000000000000001) var992306 temp54023_55)))
(assert (= var992304 var992308))
(assert (= var599016 var992304))
(assert (= var78095 var599016))
(assert (= temp54023_67 #x0000000000000003))
(assert (= temp54023_68 #x0000000000000001))
(assert (= var78184 temp54023_68))
(assert (= temp54023_70 #x0000000000000001))
(assert (= temp54023_69 temp54023_70))
(assert (= temp54023_72 #x0000000000000001))
(assert (= temp54023_71 temp54023_72))
(model-add temp54023_1 () (_ BitVec 64) #x0000000000000005)
(model-add temp54023_2 () (_ BitVec 64) #x0000000000000001)
(model-add var77740 () (_ BitVec 64) #x0000000000000001)
(model-del k!0)
(model-add ARGNAME_input_1_NAMEEND_DIM
           ()
           (_ BitVec 64)
           (ite k!0 #x0000000000000005 (bvnot #x0000000000000005)))

